33D32945 STP File, STP Format Version 1.0

SECTION Comments
Name "cube_n10_d3_s49"
Problem "Euclidean Steiner Tree Problem"
Remark "Generated with STPGenerator. 3 dimensions."
END

SECTION Graph
Nodes 10
END

SECTION Coordinates
DDD 0 0.0418115836 0.2200377310 0.3087208249
DDD 1 0.1629512739 0.7427612197 0.2952385462
DDD 2 0.6634417692 0.9268148322 0.4391896513
DDD 3 0.6174133409 0.9290067493 0.8974420614
DDD 4 0.6268771643 0.9956121147 0.5463564538
DDD 5 0.9780446412 0.8501515877 0.8986921589
DDD 6 0.4174514107 0.3731905494 0.4855085041
DDD 7 0.3490163122 0.8709676535 0.6129136903
DDD 8 0.1817772687 0.4070928839 0.1923376211
DDD 9 0.4982240295 0.9403857789 0.7748197265
END
